c turning on binary mode checking
c parsing input formula with 10 variables and 25 clauses
c finished parsing
c detected empty clause; start verification via backward checking
c 25 of 25 clauses in core
c 12 of 13 lemmas in core using 60 resolution steps
c 0 RAT lemmas in core; 0 redundant literals in core lemmas
s VERIFIED
c verification time: 0.066 seconds
